(set-logic QF_S)
(declare-fun var0 () String)
(assert (str.in.re var0 (re.++ (re.+ (re.union (str.to.re "0") (str.to.re "1"))) (re.++ (re.union (re.* (str.to.re "222")) (re.* (str.to.re "3"))) (re.++ (re.+ (re.+ (str.to.re "444"))) (re.++ (re.+ (re.* (str.to.re "55"))) (re.++ (re.+ (re.union (str.to.re "666") (str.to.re "77"))) (re.++ (re.* (re.+ (str.to.re "888"))) (re.++ (re.union (re.* (str.to.re "999")) (re.* (str.to.re "a"))) (re.++ (re.+ (re.union (str.to.re "bb") (str.to.re "ccc"))) (re.++ (re.+ (re.* (str.to.re "ddd"))) (re.++ (re.union (re.+ (str.to.re "ee")) (re.+ (str.to.re "f"))) (re.++ (re.* (re.* (str.to.re "g"))) (re.++ (re.+ (re.* (str.to.re "hhh"))) (re.++ (re.+ (re.union (str.to.re "i") (str.to.re "j"))) (re.++ (re.+ (re.union (str.to.re "k") (str.to.re "lll"))) (re.++ (re.+ (re.+ (str.to.re "mmm"))) (re.++ (re.* (re.union (str.to.re "nnn") (str.to.re "ooo"))) (re.++ (re.* (re.union (str.to.re "p") (str.to.re "qq"))) (re.++ (re.union (re.union (str.to.re "rrr") (str.to.re "s")) (re.union (str.to.re "tt") (str.to.re "uu"))) (re.++ (re.* (re.* (str.to.re "v"))) (re.++ (re.+ (re.union (str.to.re "w") (str.to.re "xxx"))) (re.++ (re.union (re.* (str.to.re "y")) (re.* (str.to.re "zz"))) (re.++ (re.union (re.+ (str.to.re "A")) (re.+ (str.to.re "BB"))) (re.++ (re.union (re.* (str.to.re "C")) (re.* (str.to.re "DDD"))) (re.++ (re.* (re.* (str.to.re "EE"))) (re.++ (re.union (re.union (str.to.re "F") (str.to.re "GG")) (re.union (str.to.re "H") (str.to.re "III"))) (re.++ (re.+ (re.* (str.to.re "J"))) (re.++ (re.+ (re.+ (str.to.re "KKK"))) (re.++ (re.union (re.union (str.to.re "L") (str.to.re "M")) (re.union (str.to.re "NN") (str.to.re "O"))) (re.++ (re.union (re.+ (str.to.re "PPP")) (re.+ (str.to.re "Q"))) (re.++ (re.union (re.union (str.to.re "RR") (str.to.re "SSS")) (re.union (str.to.re "T") (str.to.re "UU"))) (re.++ (re.union (re.union (str.to.re "V") (str.to.re "WW")) (re.union (str.to.re "XXX") (str.to.re "Y"))) (re.++ (re.* (re.union (str.to.re "Z") (str.to.re "!!"))) (re.++ (re.+ (re.union (str.to.re """""") (str.to.re "##"))) (re.++ (re.* (re.+ (str.to.re "$$"))) (re.++ (re.union (re.* (str.to.re "%")) (re.* (str.to.re "&&"))) (re.++ (re.+ (re.+ (str.to.re "'"))) (re.++ (re.+ (re.* (str.to.re "((("))) (re.++ (re.* (re.* (str.to.re "))"))) (re.++ (re.+ (re.union (str.to.re "*") (str.to.re "++"))) (re.++ (re.+ (re.+ (str.to.re ",,,"))) (re.++ (re.* (re.* (str.to.re "-"))) (re.++ (re.+ (re.union (str.to.re "..") (str.to.re "//"))) (re.++ (re.* (re.+ (str.to.re ":::"))) (re.++ (re.+ (re.* (str.to.re ";"))) (re.++ (re.* (re.+ (str.to.re "<"))) (re.++ (re.+ (re.* (str.to.re "="))) (re.++ (re.+ (re.union (str.to.re ">") (str.to.re "??"))) (re.++ (re.union (re.* (str.to.re "@@@")) (re.* (str.to.re "["))) (re.++ (re.* (re.+ (str.to.re "\\"))) (re.++ (re.* (re.union (str.to.re "]]]") (str.to.re "^^"))) (re.++ (re.+ (re.+ (str.to.re "_"))) (re.++ (re.* (re.+ (str.to.re "`"))) (re.++ (re.* (re.* (str.to.re "{{"))) (re.++ (re.union (re.union (str.to.re "|||") (str.to.re "}")) (re.union (str.to.re "~~~") (str.to.re "0"))) (re.++ (re.* (re.* (str.to.re "1"))) (re.++ (re.+ (re.+ (str.to.re "2"))) (re.++ (re.* (re.+ (str.to.re "3"))) (re.++ (re.+ (re.* (str.to.re "4"))) (re.++ (re.* (re.+ (str.to.re "5"))) (re.++ (re.* (re.+ (str.to.re "6"))) (re.++ (re.union (re.union (str.to.re "7") (str.to.re "88")) (re.union (str.to.re "99") (str.to.re "a"))) (re.++ (re.union (re.union (str.to.re "bb") (str.to.re "ccc")) (re.union (str.to.re "dd") (str.to.re "ee"))) (re.++ (re.* (re.union (str.to.re "fff") (str.to.re "g"))) (re.++ (re.* (re.* (str.to.re "h"))) (re.++ (re.* (re.* (str.to.re "i"))) (re.++ (re.union (re.union (str.to.re "j") (str.to.re "k")) (re.union (str.to.re "l") (str.to.re "m"))) (re.++ (re.* (re.+ (str.to.re "nn"))) (re.++ (re.+ (re.+ (str.to.re "oo"))) (re.++ (re.+ (re.* (str.to.re "pp"))) (re.++ (re.* (re.+ (str.to.re "qq"))) (re.++ (re.* (re.+ (str.to.re "r"))) (re.++ (re.* (re.* (str.to.re "sss"))) (re.++ (re.union (re.+ (str.to.re "ttt")) (re.+ (str.to.re "uuu"))) (re.++ (re.* (re.union (str.to.re "vv") (str.to.re "www"))) (re.++ (re.union (re.union (str.to.re "xxx") (str.to.re "yyy")) (re.union (str.to.re "zz") (str.to.re "AA"))) (re.++ (re.union (re.union (str.to.re "B") (str.to.re "CC")) (re.union (str.to.re "DD") (str.to.re "EE"))) (re.++ (re.+ (re.union (str.to.re "FFF") (str.to.re "GG"))) (re.++ (re.union (re.* (str.to.re "HH")) (re.* (str.to.re "II"))) (re.++ (re.+ (re.+ (str.to.re "JJ"))) (re.++ (re.* (re.* (str.to.re "KK"))) (re.++ (re.* (re.* (str.to.re "L"))) (re.++ (re.+ (re.* (str.to.re "MMM"))) (re.++ (re.+ (re.+ (str.to.re "NNN"))) (re.++ (re.* (re.* (str.to.re "O"))) (re.++ (re.* (re.union (str.to.re "PPP") (str.to.re "Q"))) (re.++ (re.* (re.union (str.to.re "RRR") (str.to.re "S"))) (re.++ (re.* (re.+ (str.to.re "TT"))) (re.++ (re.+ (re.+ (str.to.re "U"))) (re.++ (re.* (re.* (str.to.re "V"))) (re.++ (re.+ (re.* (str.to.re "W"))) (re.++ (re.* (re.* (str.to.re "XX"))) (re.++ (re.union (re.+ (str.to.re "YYY")) (re.+ (str.to.re "ZZ"))) (re.++ (re.union (re.+ (str.to.re "!!")) (re.+ (str.to.re """"""""))) (re.++ (re.union (re.union (str.to.re "###") (str.to.re "$$$")) (re.union (str.to.re "%%") (str.to.re "&&&"))) (re.++ (re.+ (re.* (str.to.re "'"))) (re.++ (re.+ (re.* (str.to.re "((("))) (re.++ (re.union (re.union (str.to.re "))") (str.to.re "***")) (re.union (str.to.re "+++") (str.to.re ",,,"))) (re.++ (re.* (re.union (str.to.re "--") (str.to.re "."))) (re.++ (re.* (re.* (str.to.re "//"))) (re.++ (re.+ (re.* (str.to.re "::"))) (re.++ (re.+ (re.* (str.to.re ";;;"))) (re.++ (re.union (re.+ (str.to.re "<<<")) (re.+ (str.to.re "==="))) (re.++ (re.union (re.* (str.to.re ">")) (re.* (str.to.re "???"))) (re.++ (re.+ (re.union (str.to.re "@@@") (str.to.re "["))) (re.++ (re.* (re.* (str.to.re "\\\\\\"))) (re.++ (re.+ (re.union (str.to.re "]]") (str.to.re "^"))) (re.++ (re.union (re.* (str.to.re "_")) (re.* (str.to.re "`"))) (re.++ (re.* (re.union (str.to.re "{") (str.to.re "|"))) (re.++ (re.* (re.+ (str.to.re "}"))) (re.++ (re.* (re.union (str.to.re "~~") (str.to.re "00"))) (re.++ (re.union (re.+ (str.to.re "11")) (re.+ (str.to.re "2"))) (re.++ (re.+ (re.+ (str.to.re "333"))) (re.++ (re.+ (re.+ (str.to.re "44"))) (re.++ (re.+ (re.union (str.to.re "5") (str.to.re "666"))) (re.++ (re.union (re.* (str.to.re "77")) (re.* (str.to.re "888"))) (re.++ (re.union (re.* (str.to.re "99")) (re.* (str.to.re "aaa"))) (re.++ (re.union (re.* (str.to.re "b")) (re.* (str.to.re "cc"))) (re.++ (re.* (re.union (str.to.re "d") (str.to.re "ee"))) (re.++ (re.* (re.* (str.to.re "ff"))) (re.++ (re.+ (re.+ (str.to.re "ggg"))) (re.++ (re.union (re.* (str.to.re "h")) (re.* (str.to.re "ii"))) (re.++ (re.+ (re.+ (str.to.re "jj"))) (re.++ (re.union (re.+ (str.to.re "kk")) (re.+ (str.to.re "ll"))) (re.++ (re.union (re.* (str.to.re "m")) (re.* (str.to.re "nn"))) (re.++ (re.+ (re.* (str.to.re "o"))) (re.++ (re.* (re.* (str.to.re "ppp"))) (re.++ (re.+ (re.union (str.to.re "qqq") (str.to.re "rrr"))) (re.++ (re.* (re.union (str.to.re "ss") (str.to.re "ttt"))) (re.++ (re.+ (re.+ (str.to.re "uuu"))) (re.++ (re.* (re.union (str.to.re "vv") (str.to.re "www"))) (re.++ (re.+ (re.union (str.to.re "x") (str.to.re "yy"))) (re.++ (re.* (re.union (str.to.re "z") (str.to.re "AA"))) (re.++ (re.union (re.+ (str.to.re "B")) (re.+ (str.to.re "CC"))) (re.++ (re.+ (re.* (str.to.re "D"))) (re.++ (re.union (re.+ (str.to.re "EE")) (re.+ (str.to.re "FFF"))) (re.++ (re.+ (re.* (str.to.re "G"))) (re.++ (re.+ (re.+ (str.to.re "HHH"))) (re.++ (re.+ (re.union (str.to.re "I") (str.to.re "JJ"))) (re.++ (re.+ (re.union (str.to.re "KKK") (str.to.re "LL"))) (re.++ (re.union (re.* (str.to.re "MM")) (re.* (str.to.re "N"))) (re.++ (re.union (re.* (str.to.re "OO")) (re.* (str.to.re "PP"))) (re.++ (re.union (re.+ (str.to.re "QQ")) (re.+ (str.to.re "RRR"))) (re.++ (re.* (re.+ (str.to.re "SSS"))) (re.++ (re.union (re.union (str.to.re "TT") (str.to.re "UUU")) (re.union (str.to.re "VVV") (str.to.re "W"))) (re.++ (re.union (re.union (str.to.re "XXX") (str.to.re "YYY")) (re.union (str.to.re "ZZ") (str.to.re "!!!"))) (re.++ (re.* (re.+ (str.to.re """"))) (re.++ (re.+ (re.union (str.to.re "#") (str.to.re "$$$"))) (re.++ (re.+ (re.* (str.to.re "%"))) (re.++ (re.* (re.* (str.to.re "&&"))) (re.++ (re.+ (re.+ (str.to.re "''"))) (re.++ (re.* (re.union (str.to.re "(") (str.to.re "))"))) (re.++ (re.* (re.* (str.to.re "*"))) (re.++ (re.* (re.union (str.to.re "+++") (str.to.re ","))) (re.++ (re.+ (re.union (str.to.re "---") (str.to.re ".."))) (re.* (re.+ (str.to.re "//")))))))))))))))))))))))))))))))))))))))))))))))))))))))))))))))))))))))))))))))))))))))))))))))))))))))))))))))))))))))))))))))))))))))))))))))))))))))))))))))
(check-sat)